p cnf 965 2478
51 -698 -699 0
-51 698 0
-51 699 0
52 -51 -700 0
-52 51 0
-52 700 0
53 -5 -4 0
-53 5 0
-53 4 0
54 -53 -701 0
-54 53 0
-54 701 0
55 -702 -703 0
-55 702 0
-55 703 0
56 -704 -7 0
-56 704 0
-56 7 0
57 -56 -705 0
-57 56 0
-57 705 0
58 -706 -55 0
-58 706 0
-58 55 0
59 -707 -10 0
-59 707 0
-59 10 0
60 -59 -12 0
-60 59 0
-60 12 0
61 -708 -58 0
-61 708 0
-61 58 0
62 -14 -13 0
-62 14 0
-62 13 0
63 -62 -709 0
-63 62 0
-63 709 0
64 -710 -61 0
-64 710 0
-64 61 0
65 -16 -711 0
-65 16 0
-65 711 0
66 -65 -712 0
-66 65 0
-66 712 0
67 -713 -64 0
-67 713 0
-67 64 0
68 -714 -4 0
-68 714 0
-68 4 0
69 -68 -715 0
-69 68 0
-69 715 0
70 -716 -67 0
-70 716 0
-70 67 0
71 -19 -7 0
-71 19 0
-71 7 0
72 -71 -6 0
-72 71 0
-72 6 0
73 -717 -70 0
-73 717 0
-73 70 0
74 -21 -20 0
-74 21 0
-74 20 0
75 -74 -718 0
-75 74 0
-75 718 0
76 -719 -73 0
-76 719 0
-76 73 0
77 -720 -701 0
-77 720 0
-77 701 0
78 -77 -721 0
-78 77 0
-78 721 0
79 -722 -76 0
-79 722 0
-79 76 0
80 -26 -25 0
-80 26 0
-80 25 0
81 -80 -12 0
-81 80 0
-81 12 0
82 -723 -79 0
-82 723 0
-82 79 0
83 -724 -704 0
-83 724 0
-83 704 0
84 -83 -28 0
-84 83 0
-84 28 0
85 -725 -82 0
-85 725 0
-85 82 0
86 -29 -17 0
-86 29 0
-86 17 0
87 -86 -24 0
-87 86 0
-87 24 0
88 -726 -85 0
-88 726 0
-88 85 0
89 -709 -699 0
-89 709 0
-89 699 0
90 -89 -28 0
-90 89 0
-90 28 0
91 -727 -88 0
-91 727 0
-91 88 0
92 -728 -729 0
-92 728 0
-92 729 0
93 -92 -705 0
-93 92 0
-93 705 0
94 -730 -91 0
-94 730 0
-94 91 0
95 -32 -4 0
-95 32 0
-95 4 0
96 -95 -731 0
-96 95 0
-96 731 0
97 -732 -94 0
-97 732 0
-97 94 0
98 -34 -701 0
-98 34 0
-98 701 0
99 -98 -12 0
-99 98 0
-99 12 0
100 -733 -97 0
-100 733 0
-100 97 0
101 -35 -734 0
-101 35 0
-101 734 0
102 -101 -12 0
-102 101 0
-102 12 0
103 -735 -100 0
-103 735 0
-103 100 0
104 -14 -11 0
-104 14 0
-104 11 0
105 -104 -22 0
-105 104 0
-105 22 0
106 -736 -103 0
-106 736 0
-106 103 0
107 -737 -32 0
-107 737 0
-107 32 0
108 -107 -15 0
-108 107 0
-108 15 0
109 -738 -106 0
-109 738 0
-109 106 0
110 -739 -699 0
-110 739 0
-110 699 0
111 -110 -740 0
-111 110 0
-111 740 0
112 -741 -109 0
-112 741 0
-112 109 0
113 -38 -742 0
-113 38 0
-113 742 0
114 -113 -743 0
-114 113 0
-114 743 0
115 -744 -112 0
-115 744 0
-115 112 0
116 -745 -746 0
-116 745 0
-116 746 0
117 -116 -3 0
-117 116 0
-117 3 0
118 -747 -115 0
-118 747 0
-118 115 0
119 -737 -6 0
-119 737 0
-119 6 0
120 -119 -12 0
-120 119 0
-120 12 0
121 -748 -118 0
-121 748 0
-121 118 0
122 -728 -749 0
-122 728 0
-122 749 0
123 -122 -2 0
-123 122 0
-123 2 0
124 -750 -121 0
-124 750 0
-124 121 0
125 -41 -15 0
-125 41 0
-125 15 0
126 -125 -712 0
-126 125 0
-126 712 0
127 -751 -124 0
-127 751 0
-127 124 0
128 -36 -742 0
-128 36 0
-128 742 0
129 -128 -23 0
-129 128 0
-129 23 0
130 -752 -127 0
-130 752 0
-130 127 0
131 -753 -16 0
-131 753 0
-131 16 0
132 -131 -746 0
-132 131 0
-132 746 0
133 -754 -130 0
-133 754 0
-133 130 0
134 -755 -41 0
-134 755 0
-134 41 0
135 -134 -745 0
-135 134 0
-135 745 0
136 -756 -133 0
-136 756 0
-136 133 0
137 -721 -749 0
-137 721 0
-137 749 0
138 -137 -757 0
-138 137 0
-138 757 0
139 -758 -136 0
-139 758 0
-139 136 0
140 -43 -22 0
-140 43 0
-140 22 0
141 -140 -23 0
-141 140 0
-141 23 0
142 -759 -139 0
-142 759 0
-142 139 0
143 -720 -749 0
-143 720 0
-143 749 0
144 -143 -701 0
-144 143 0
-144 701 0
145 -760 -142 0
-145 760 0
-145 142 0
146 -753 -737 0
-146 753 0
-146 737 0
147 -146 -40 0
-147 146 0
-147 40 0
148 -761 -145 0
-148 761 0
-148 145 0
149 -762 -740 0
-149 762 0
-149 740 0
150 -149 -763 0
-150 149 0
-150 763 0
151 -764 -148 0
-151 764 0
-151 148 0
152 -39 -765 0
-152 39 0
-152 765 0
153 -152 -42 0
-153 152 0
-153 42 0
154 -766 -151 0
-154 766 0
-154 151 0
155 -737 -4 0
-155 737 0
-155 4 0
156 -155 -731 0
-156 155 0
-156 731 0
157 -767 -154 0
-157 767 0
-157 154 0
158 -25 -768 0
-158 25 0
-158 768 0
159 -158 -718 0
-159 158 0
-159 718 0
160 -769 -157 0
-160 769 0
-160 157 0
161 -29 -739 0
-161 29 0
-161 739 0
162 -161 -33 0
-162 161 0
-162 33 0
163 -770 -160 0
-163 770 0
-163 160 0
164 -765 -14 0
-164 765 0
-164 14 0
165 -164 -705 0
-165 164 0
-165 705 0
166 -771 -163 0
-166 771 0
-166 163 0
167 -772 -37 0
-167 772 0
-167 37 0
168 -167 -12 0
-168 167 0
-168 12 0
169 -773 -166 0
-169 773 0
-169 166 0
170 -765 -11 0
-170 765 0
-170 11 0
171 -170 -774 0
-171 170 0
-171 774 0
172 -775 -169 0
-172 775 0
-172 169 0
173 -47 -14 0
-173 47 0
-173 14 0
174 -173 -12 0
-174 173 0
-174 12 0
175 -776 -172 0
-175 776 0
-175 172 0
176 -39 -734 0
-176 39 0
-176 734 0
177 -176 -777 0
-177 176 0
-177 777 0
178 -778 -175 0
-178 778 0
-178 175 0
179 -714 -7 0
-179 714 0
-179 7 0
180 -179 -37 0
-180 179 0
-180 37 0
181 -779 -178 0
-181 779 0
-181 178 0
182 -48 -699 0
-182 48 0
-182 699 0
183 -182 -728 0
-183 182 0
-183 728 0
184 -780 -181 0
-184 780 0
-184 181 0
185 -749 -781 0
-185 749 0
-185 781 0
186 -185 -712 0
-186 185 0
-186 712 0
187 -782 -184 0
-187 782 0
-187 184 0
188 -743 -734 0
-188 743 0
-188 734 0
189 -188 -731 0
-189 188 0
-189 731 0
190 -783 -187 0
-190 783 0
-190 187 0
191 -784 -762 0
-191 784 0
-191 762 0
192 -191 -720 0
-192 191 0
-192 720 0
193 -785 -190 0
-193 785 0
-193 190 0
194 -714 -709 0
-194 714 0
-194 709 0
195 -194 -786 0
-195 194 0
-195 786 0
196 -787 -193 0
-196 787 0
-196 193 0
197 -777 -742 0
-197 777 0
-197 742 0
198 -197 -701 0
-198 197 0
-198 701 0
199 -788 -196 0
-199 788 0
-199 196 0
200 -29 -724 0
-200 29 0
-200 724 0
201 -200 -707 0
-201 200 0
-201 707 0
202 -789 -199 0
-202 789 0
-202 199 0
203 -37 -13 0
-203 37 0
-203 13 0
204 -203 -45 0
-204 203 0
-204 45 0
205 -790 -202 0
-205 790 0
-205 202 0
206 -50 -29 0
-206 50 0
-206 29 0
207 -206 -11 0
-207 206 0
-207 11 0
208 -791 -205 0
-208 791 0
-208 205 0
209 -792 -786 0
-209 792 0
-209 786 0
210 -209 -22 0
-210 209 0
-210 22 0
211 -793 -208 0
-211 793 0
-211 208 0
212 -714 -781 0
-212 714 0
-212 781 0
213 -212 -705 0
-213 212 0
-213 705 0
214 -794 -211 0
-214 794 0
-214 211 0
215 -792 -6 0
-215 792 0
-215 6 0
216 -215 -28 0
-216 215 0
-216 28 0
217 -795 -214 0
-217 795 0
-217 214 0
218 -44 -707 0
-218 44 0
-218 707 0
219 -218 -704 0
-219 218 0
-219 704 0
220 -796 -217 0
-220 796 0
-220 217 0
221 -753 -20 0
-221 753 0
-221 20 0
222 -221 -763 0
-222 221 0
-222 763 0
223 -797 -220 0
-223 797 0
-223 220 0
224 -743 -711 0
-224 743 0
-224 711 0
225 -224 -22 0
-225 224 0
-225 22 0
226 -798 -223 0
-226 798 0
-226 223 0
227 -25 -23 0
-227 25 0
-227 23 0
228 -227 -721 0
-228 227 0
-228 721 0
229 -799 -226 0
-229 799 0
-229 226 0
230 -44 -18 0
-230 44 0
-230 18 0
231 -230 -8 0
-231 230 0
-231 8 0
232 -800 -229 0
-232 800 0
-232 229 0
233 -173 -21 0
-233 173 0
-233 21 0
234 -801 -232 0
-234 801 0
-234 232 0
235 -39 -802 0
-235 39 0
-235 802 0
236 -235 -701 0
-236 235 0
-236 701 0
237 -803 -234 0
-237 803 0
-237 234 0
238 -728 -721 0
-238 728 0
-238 721 0
239 -238 -9 0
-239 238 0
-239 9 0
240 -804 -237 0
-240 804 0
-240 237 0
241 -734 -20 0
-241 734 0
-241 20 0
242 -241 -8 0
-242 241 0
-242 8 0
243 -805 -240 0
-243 805 0
-243 240 0
244 -753 -13 0
-244 753 0
-244 13 0
245 -244 -43 0
-245 244 0
-245 43 0
246 -806 -243 0
-246 806 0
-246 243 0
247 -807 -734 0
-247 807 0
-247 734 0
248 -247 -774 0
-248 247 0
-248 774 0
249 -808 -246 0
-249 808 0
-249 246 0
250 -809 -753 0
-250 809 0
-250 753 0
251 -250 -763 0
-251 250 0
-251 763 0
252 -810 -249 0
-252 810 0
-252 249 0
253 -753 -699 0
-253 753 0
-253 699 0
254 -253 -29 0
-254 253 0
-254 29 0
255 -811 -252 0
-255 811 0
-255 252 0
256 -47 -711 0
-256 47 0
-256 711 0
257 -256 -720 0
-257 256 0
-257 720 0
258 -812 -255 0
-258 812 0
-258 255 0
259 -740 -26 0
-259 740 0
-259 26 0
260 -259 -9 0
-260 259 0
-260 9 0
261 -813 -258 0
-261 813 0
-261 258 0
262 -784 -749 0
-262 784 0
-262 749 0
263 -262 -720 0
-263 262 0
-263 720 0
264 -814 -261 0
-264 814 0
-264 261 0
265 -29 -763 0
-265 29 0
-265 763 0
266 -265 -786 0
-266 265 0
-266 786 0
267 -815 -264 0
-267 815 0
-267 264 0
268 -14 -763 0
-268 14 0
-268 763 0
269 -268 -705 0
-269 268 0
-269 705 0
270 -816 -267 0
-270 816 0
-270 267 0
271 -728 -714 0
-271 728 0
-271 714 0
272 -271 -705 0
-272 271 0
-272 705 0
273 -817 -270 0
-273 817 0
-273 270 0
274 -32 -5 0
-274 32 0
-274 5 0
275 -274 -46 0
-275 274 0
-275 46 0
276 -818 -273 0
-276 818 0
-276 273 0
277 -31 -707 0
-277 31 0
-277 707 0
278 -277 -720 0
-278 277 0
-278 720 0
279 -819 -276 0
-279 819 0
-279 276 0
280 -737 -731 0
-280 737 0
-280 731 0
281 -280 -700 0
-281 280 0
-281 700 0
282 -820 -279 0
-282 820 0
-282 279 0
283 -762 -10 0
-283 762 0
-283 10 0
284 -283 -45 0
-284 283 0
-284 45 0
285 -821 -282 0
-285 821 0
-285 282 0
286 -740 -15 0
-286 740 0
-286 15 0
287 -286 -5 0
-287 286 0
-287 5 0
288 -822 -285 0
-288 822 0
-288 285 0
289 -823 -2 0
-289 823 0
-289 2 0
290 -289 -3 0
-290 289 0
-290 3 0
291 -824 -288 0
-291 824 0
-291 288 0
292 -49 -749 0
-292 49 0
-292 749 0
293 -292 -30 0
-293 292 0
-293 30 0
294 -825 -291 0
-294 825 0
-294 291 0
295 -826 -711 0
-295 826 0
-295 711 0
296 -295 -5 0
-296 295 0
-296 5 0
297 -827 -294 0
-297 827 0
-297 294 0
298 -714 -765 0
-298 714 0
-298 765 0
299 -298 -728 0
-299 298 0
-299 728 0
300 -828 -297 0
-300 828 0
-300 297 0
301 -731 -31 0
-301 731 0
-301 31 0
302 -301 -700 0
-302 301 0
-302 700 0
303 -829 -300 0
-303 829 0
-303 300 0
304 -755 -728 0
-304 755 0
-304 728 0
305 -304 -701 0
-305 304 0
-305 701 0
306 -830 -303 0
-306 830 0
-306 303 0
307 -47 -715 0
-307 47 0
-307 715 0
308 -307 -763 0
-308 307 0
-308 763 0
309 -831 -306 0
-309 831 0
-309 306 0
310 -47 -36 0
-310 47 0
-310 36 0
311 -310 -31 0
-311 310 0
-311 31 0
312 -832 -309 0
-312 832 0
-312 309 0
313 -777 -2 0
-313 777 0
-313 2 0
314 -313 -705 0
-314 313 0
-314 705 0
315 -833 -312 0
-315 833 0
-315 312 0
316 -33 -720 0
-316 33 0
-316 720 0
317 -316 -721 0
-317 316 0
-317 721 0
318 -834 -315 0
-318 834 0
-318 315 0
319 -807 -714 0
-319 807 0
-319 714 0
320 -319 -22 0
-320 319 0
-320 22 0
321 -835 -318 0
-321 835 0
-321 318 0
322 -37 -25 0
-322 37 0
-322 25 0
323 -322 -30 0
-323 322 0
-323 30 0
324 -836 -321 0
-324 836 0
-324 321 0
325 -737 -10 0
-325 737 0
-325 10 0
326 -325 -721 0
-326 325 0
-326 721 0
327 -837 -324 0
-327 837 0
-327 324 0
328 -45 -768 0
-328 45 0
-328 768 0
329 -328 -757 0
-329 328 0
-329 757 0
330 -838 -327 0
-330 838 0
-330 327 0
331 -792 -802 0
-331 792 0
-331 802 0
332 -331 -7 0
-332 331 0
-332 7 0
333 -839 -330 0
-333 839 0
-333 330 0
334 -42 -7 0
-334 42 0
-334 7 0
335 -334 -740 0
-335 334 0
-335 740 0
336 -840 -333 0
-336 840 0
-336 333 0
337 -724 -19 0
-337 724 0
-337 19 0
338 -337 -721 0
-338 337 0
-338 721 0
339 -841 -336 0
-339 841 0
-339 336 0
340 -47 -45 0
-340 47 0
-340 45 0
341 -340 -757 0
-341 340 0
-341 757 0
342 -842 -339 0
-342 842 0
-342 339 0
343 -784 -737 0
-343 784 0
-343 737 0
344 -343 -709 0
-344 343 0
-344 709 0
345 -843 -342 0
-345 843 0
-345 342 0
346 -729 -742 0
-346 729 0
-346 742 0
347 -346 -33 0
-347 346 0
-347 33 0
348 -844 -345 0
-348 844 0
-348 345 0
349 -802 -1 0
-349 802 0
-349 1 0
350 -349 -718 0
-350 349 0
-350 718 0
351 -845 -348 0
-351 845 0
-351 348 0
352 -755 -753 0
-352 755 0
-352 753 0
353 -352 -709 0
-353 352 0
-353 709 0
354 -846 -351 0
-354 846 0
-354 351 0
355 -745 -25 0
-355 745 0
-355 25 0
356 -355 -823 0
-356 355 0
-356 823 0
357 -847 -354 0
-357 847 0
-357 354 0
358 -44 -848 0
-358 44 0
-358 848 0
359 -358 -33 0
-359 358 0
-359 33 0
360 -849 -357 0
-360 849 0
-360 357 0
361 -36 -32 0
-361 36 0
-361 32 0
362 -361 -22 0
-362 361 0
-362 22 0
363 -850 -360 0
-363 850 0
-363 360 0
364 -826 -29 0
-364 826 0
-364 29 0
365 -364 -34 0
-365 364 0
-365 34 0
366 -851 -363 0
-366 851 0
-366 363 0
367 -715 -711 0
-367 715 0
-367 711 0
368 -367 -25 0
-368 367 0
-368 25 0
369 -852 -366 0
-369 852 0
-369 366 0
370 -774 -699 0
-370 774 0
-370 699 0
371 -370 -705 0
-371 370 0
-371 705 0
372 -853 -369 0
-372 853 0
-372 369 0
373 -44 -709 0
-373 44 0
-373 709 0
374 -373 -24 0
-374 373 0
-374 24 0
375 -854 -372 0
-375 854 0
-375 372 0
376 -740 -734 0
-376 740 0
-376 734 0
377 -376 -700 0
-377 376 0
-377 700 0
378 -855 -375 0
-378 855 0
-378 375 0
379 -45 -11 0
-379 45 0
-379 11 0
380 -379 -774 0
-380 379 0
-380 774 0
381 -856 -378 0
-381 856 0
-381 378 0
382 -724 -25 0
-382 724 0
-382 25 0
383 -382 -700 0
-383 382 0
-383 700 0
384 -857 -381 0
-384 857 0
-384 381 0
385 -49 -14 0
-385 49 0
-385 14 0
386 -385 -720 0
-386 385 0
-386 720 0
387 -858 -384 0
-387 858 0
-387 384 0
388 -715 -749 0
-388 715 0
-388 749 0
389 -388 -859 0
-389 388 0
-389 859 0
390 -860 -387 0
-390 860 0
-390 387 0
391 -792 -15 0
-391 792 0
-391 15 0
392 -391 -712 0
-392 391 0
-392 712 0
393 -861 -390 0
-393 861 0
-393 390 0
394 -823 -10 0
-394 823 0
-394 10 0
395 -394 -763 0
-395 394 0
-395 763 0
396 -862 -393 0
-396 862 0
-396 393 0
397 -48 -765 0
-397 48 0
-397 765 0
398 -397 -24 0
-398 397 0
-398 24 0
399 -863 -396 0
-399 863 0
-399 396 0
400 -721 -781 0
-400 721 0
-400 781 0
401 -400 -757 0
-401 400 0
-401 757 0
402 -864 -399 0
-402 864 0
-402 399 0
403 -43 -37 0
-403 43 0
-403 37 0
404 -403 -823 0
-404 403 0
-404 823 0
405 -865 -402 0
-405 865 0
-405 402 0
406 -746 -17 0
-406 746 0
-406 17 0
407 -406 -720 0
-407 406 0
-407 720 0
408 -866 -405 0
-408 866 0
-408 405 0
409 -740 -859 0
-409 740 0
-409 859 0
410 -409 -698 0
-410 409 0
-410 698 0
411 -867 -408 0
-411 867 0
-411 408 0
412 -17 -14 0
-412 17 0
-412 14 0
413 -412 -47 0
-413 412 0
-413 47 0
414 -868 -411 0
-414 868 0
-414 411 0
415 -15 -3 0
-415 15 0
-415 3 0
416 -415 -712 0
-416 415 0
-416 712 0
417 -869 -414 0
-417 869 0
-417 414 0
418 -36 -27 0
-418 36 0
-418 27 0
419 -418 -29 0
-419 418 0
-419 29 0
420 -870 -417 0
-420 870 0
-420 417 0
421 -364 -777 0
-421 364 0
-421 777 0
422 -871 -420 0
-422 871 0
-422 420 0
423 -43 -30 0
-423 43 0
-423 30 0
424 -423 -35 0
-424 423 0
-424 35 0
425 -872 -422 0
-425 872 0
-425 422 0
426 -802 -749 0
-426 802 0
-426 749 0
427 -426 -45 0
-427 426 0
-427 45 0
428 -873 -425 0
-428 873 0
-428 425 0
429 -807 -792 0
-429 807 0
-429 792 0
430 -429 -721 0
-430 429 0
-430 721 0
431 -874 -428 0
-431 874 0
-431 428 0
432 -724 -746 0
-432 724 0
-432 746 0
433 -432 -9 0
-433 432 0
-433 9 0
434 -875 -431 0
-434 875 0
-434 431 0
435 -39 -31 0
-435 39 0
-435 31 0
436 -435 -774 0
-436 435 0
-436 774 0
437 -876 -434 0
-437 876 0
-437 434 0
438 -715 -13 0
-438 715 0
-438 13 0
439 -438 -749 0
-439 438 0
-439 749 0
440 -877 -437 0
-440 877 0
-440 437 0
441 -39 -768 0
-441 39 0
-441 768 0
442 -441 -739 0
-442 441 0
-442 739 0
443 -878 -440 0
-443 878 0
-443 440 0
444 -728 -25 0
-444 728 0
-444 25 0
445 -444 -698 0
-445 444 0
-445 698 0
446 -879 -443 0
-446 879 0
-446 443 0
447 -21 -700 0
-447 21 0
-447 700 0
448 -447 -712 0
-448 447 0
-448 712 0
449 -880 -446 0
-449 880 0
-449 446 0
450 -774 -39 0
-450 774 0
-450 39 0
451 -450 -28 0
-451 450 0
-451 28 0
452 -881 -449 0
-452 881 0
-452 449 0
453 -784 -742 0
-453 784 0
-453 742 0
454 -453 -786 0
-454 453 0
-454 786 0
455 -882 -452 0
-455 882 0
-455 452 0
456 -42 -39 0
-456 42 0
-456 39 0
457 -456 -23 0
-457 456 0
-457 23 0
458 -883 -455 0
-458 883 0
-458 455 0
459 -18 -711 0
-459 18 0
-459 711 0
460 -459 -698 0
-460 459 0
-460 698 0
461 -884 -458 0
-461 884 0
-461 458 0
462 -44 -802 0
-462 44 0
-462 802 0
463 -462 -707 0
-463 462 0
-463 707 0
464 -885 -461 0
-464 885 0
-464 461 0
465 -753 -707 0
-465 753 0
-465 707 0
466 -465 -757 0
-466 465 0
-466 757 0
467 -886 -464 0
-467 886 0
-467 464 0
468 -27 -765 0
-468 27 0
-468 765 0
469 -468 -807 0
-469 468 0
-469 807 0
470 -887 -467 0
-470 887 0
-470 467 0
471 -31 -749 0
-471 31 0
-471 749 0
472 -471 -721 0
-472 471 0
-472 721 0
473 -888 -470 0
-473 888 0
-473 470 0
474 -792 -848 0
-474 792 0
-474 848 0
475 -474 -45 0
-475 474 0
-475 45 0
476 -889 -473 0
-476 889 0
-476 473 0
477 -295 -6 0
-477 295 0
-477 6 0
478 -890 -476 0
-478 890 0
-478 476 0
479 -40 -15 0
-479 40 0
-479 15 0
480 -479 -700 0
-480 479 0
-480 700 0
481 -891 -478 0
-481 891 0
-481 478 0
482 -39 -720 0
-482 39 0
-482 720 0
483 -482 -701 0
-483 482 0
-483 701 0
484 -892 -481 0
-484 892 0
-484 481 0
485 -802 -20 0
-485 802 0
-485 20 0
486 -485 -724 0
-486 485 0
-486 724 0
487 -893 -484 0
-487 893 0
-487 484 0
488 -755 -743 0
-488 755 0
-488 743 0
489 -488 -14 0
-489 488 0
-489 14 0
490 -894 -487 0
-490 894 0
-490 487 0
491 -774 -34 0
-491 774 0
-491 34 0
492 -491 -9 0
-492 491 0
-492 9 0
493 -895 -490 0
-493 895 0
-493 490 0
494 -31 -765 0
-494 31 0
-494 765 0
495 -494 -24 0
-495 494 0
-495 24 0
496 -896 -493 0
-496 896 0
-496 493 0
497 -426 -15 0
-497 426 0
-497 15 0
498 -897 -496 0
-498 897 0
-498 496 0
499 -331 -698 0
-499 331 0
-499 698 0
500 -898 -498 0
-500 898 0
-500 498 0
501 -34 -33 0
-501 34 0
-501 33 0
502 -501 -23 0
-502 501 0
-502 23 0
503 -899 -500 0
-503 899 0
-503 500 0
504 -25 -13 0
-504 25 0
-504 13 0
505 -504 -31 0
-505 504 0
-505 31 0
506 -900 -503 0
-506 900 0
-506 503 0
507 -737 -33 0
-507 737 0
-507 33 0
508 -507 -707 0
-508 507 0
-508 707 0
509 -901 -506 0
-509 901 0
-509 506 0
510 -33 -23 0
-510 33 0
-510 23 0
511 -510 -24 0
-511 510 0
-511 24 0
512 -902 -509 0
-512 902 0
-512 509 0
513 -42 -714 0
-513 42 0
-513 714 0
514 -513 -40 0
-514 513 0
-514 40 0
515 -903 -512 0
-515 903 0
-515 512 0
516 -737 -739 0
-516 737 0
-516 739 0
517 -516 -50 0
-517 516 0
-517 50 0
518 -904 -515 0
-518 904 0
-518 515 0
519 -823 -848 0
-519 823 0
-519 848 0
520 -519 -698 0
-520 519 0
-520 698 0
521 -905 -518 0
-521 905 0
-521 518 0
522 -20 -781 0
-522 20 0
-522 781 0
523 -522 -746 0
-523 522 0
-523 746 0
524 -906 -521 0
-524 906 0
-524 521 0
525 -745 -740 0
-525 745 0
-525 740 0
526 -525 -11 0
-526 525 0
-526 11 0
527 -907 -524 0
-527 907 0
-527 524 0
528 -45 -720 0
-528 45 0
-528 720 0
529 -528 -700 0
-529 528 0
-529 700 0
530 -908 -527 0
-530 908 0
-530 527 0
531 -802 -707 0
-531 802 0
-531 707 0
532 -531 -721 0
-532 531 0
-532 721 0
533 -909 -530 0
-533 909 0
-533 530 0
534 -737 -7 0
-534 737 0
-534 7 0
535 -534 -705 0
-535 534 0
-535 705 0
536 -910 -533 0
-536 910 0
-536 533 0
537 -762 -709 0
-537 762 0
-537 709 0
538 -537 -807 0
-538 537 0
-538 807 0
539 -911 -536 0
-539 911 0
-539 536 0
540 -27 -13 0
-540 27 0
-540 13 0
541 -540 -34 0
-541 540 0
-541 34 0
542 -912 -539 0
-542 912 0
-542 539 0
543 -34 -31 0
-543 34 0
-543 31 0
544 -543 -9 0
-544 543 0
-544 9 0
545 -913 -542 0
-545 913 0
-545 542 0
546 -737 -15 0
-546 737 0
-546 15 0
547 -546 -712 0
-547 546 0
-547 712 0
548 -914 -545 0
-548 914 0
-548 545 0
549 -48 -27 0
-549 48 0
-549 27 0
550 -549 -31 0
-550 549 0
-550 31 0
551 -915 -548 0
-551 915 0
-551 548 0
552 -19 -714 0
-552 19 0
-552 714 0
553 -552 -721 0
-553 552 0
-553 721 0
554 -916 -551 0
-554 916 0
-554 551 0
555 -31 -734 0
-555 31 0
-555 734 0
556 -555 -6 0
-556 555 0
-556 6 0
557 -917 -554 0
-557 917 0
-557 554 0
558 -737 -699 0
-558 737 0
-558 699 0
559 -558 -746 0
-559 558 0
-559 746 0
560 -918 -557 0
-560 918 0
-560 557 0
561 -753 -802 0
-561 753 0
-561 802 0
562 -561 -25 0
-562 561 0
-562 25 0
563 -919 -560 0
-563 919 0
-563 560 0
564 -809 -711 0
-564 809 0
-564 711 0
565 -564 -701 0
-565 564 0
-565 701 0
566 -920 -563 0
-566 920 0
-566 563 0
567 -784 -43 0
-567 784 0
-567 43 0
568 -567 -33 0
-568 567 0
-568 33 0
569 -921 -566 0
-569 921 0
-569 566 0
570 -37 -16 0
-570 37 0
-570 16 0
571 -570 -3 0
-571 570 0
-571 3 0
572 -922 -569 0
-572 922 0
-572 569 0
573 -742 -15 0
-573 742 0
-573 15 0
574 -573 -29 0
-574 573 0
-574 29 0
575 -923 -572 0
-575 923 0
-575 572 0
576 -792 -746 0
-576 792 0
-576 746 0
577 -576 -698 0
-577 576 0
-577 698 0
578 -924 -575 0
-578 924 0
-578 575 0
579 -47 -31 0
-579 47 0
-579 31 0
580 -579 -705 0
-580 579 0
-580 705 0
581 -925 -578 0
-581 925 0
-581 578 0
582 -33 -27 0
-582 33 0
-582 27 0
583 -582 -712 0
-583 582 0
-583 712 0
584 -926 -581 0
-584 926 0
-584 581 0
585 -711 -699 0
-585 711 0
-585 699 0
586 -585 -48 0
-586 585 0
-586 48 0
587 -927 -584 0
-587 927 0
-587 584 0
588 -823 -21 0
-588 823 0
-588 21 0
589 -588 -31 0
-589 588 0
-589 31 0
590 -928 -587 0
-590 928 0
-590 587 0
591 -49 -792 0
-591 49 0
-591 792 0
592 -591 -707 0
-592 591 0
-592 707 0
593 -929 -590 0
-593 929 0
-593 590 0
594 -737 -700 0
-594 737 0
-594 700 0
595 -594 -28 0
-595 594 0
-595 28 0
596 -930 -593 0
-596 930 0
-596 593 0
597 -807 -729 0
-597 807 0
-597 729 0
598 -597 -50 0
-598 597 0
-598 50 0
599 -931 -596 0
-599 931 0
-599 596 0
600 -40 -763 0
-600 40 0
-600 763 0
601 -600 -712 0
-601 600 0
-601 712 0
602 -932 -599 0
-602 932 0
-602 599 0
603 -19 -711 0
-603 19 0
-603 711 0
604 -603 -718 0
-604 603 0
-604 718 0
605 -933 -602 0
-605 933 0
-605 602 0
606 -784 -753 0
-606 784 0
-606 753 0
607 -606 -711 0
-607 606 0
-607 711 0
608 -934 -605 0
-608 934 0
-608 605 0
609 -19 -14 0
-609 19 0
-609 14 0
610 -609 -11 0
-610 609 0
-610 11 0
611 -935 -608 0
-611 935 0
-611 608 0
612 -749 -768 0
-612 749 0
-612 768 0
613 -612 -709 0
-613 612 0
-613 709 0
614 -936 -611 0
-614 936 0
-614 611 0
615 -23 -707 0
-615 23 0
-615 707 0
616 -615 -705 0
-616 615 0
-616 705 0
617 -937 -614 0
-617 937 0
-617 614 0
618 -47 -19 0
-618 47 0
-618 19 0
619 -618 -22 0
-619 618 0
-619 22 0
620 -938 -617 0
-620 938 0
-620 617 0
621 -802 -848 0
-621 802 0
-621 848 0
622 -621 -23 0
-622 621 0
-622 23 0
623 -939 -620 0
-623 939 0
-623 620 0
624 -743 -17 0
-624 743 0
-624 17 0
625 -624 -30 0
-625 624 0
-625 30 0
626 -940 -623 0
-626 940 0
-626 623 0
627 -39 -749 0
-627 39 0
-627 749 0
628 -627 -36 0
-628 627 0
-628 36 0
629 -941 -626 0
-629 941 0
-629 626 0
630 -26 -10 0
-630 26 0
-630 10 0
631 -630 -9 0
-631 630 0
-631 9 0
632 -942 -629 0
-632 942 0
-632 629 0
633 -27 -739 0
-633 27 0
-633 739 0
634 -633 -2 0
-634 633 0
-634 2 0
635 -943 -632 0
-635 943 0
-635 632 0
636 -786 -709 0
-636 786 0
-636 709 0
637 -636 -777 0
-637 636 0
-637 777 0
638 -944 -635 0
-638 944 0
-638 635 0
639 -44 -26 0
-639 44 0
-639 26 0
640 -639 -700 0
-640 639 0
-640 700 0
641 -945 -638 0
-641 945 0
-641 638 0
642 -504 -24 0
-642 504 0
-642 24 0
643 -946 -641 0
-643 946 0
-643 641 0
644 -18 -16 0
-644 18 0
-644 16 0
645 -644 -24 0
-645 644 0
-645 24 0
646 -947 -643 0
-646 947 0
-646 643 0
647 -777 -728 0
-647 777 0
-647 728 0
648 -647 -718 0
-648 647 0
-648 718 0
649 -948 -646 0
-649 948 0
-649 646 0
650 -745 -768 0
-650 745 0
-650 768 0
651 -650 -704 0
-651 650 0
-651 704 0
652 -949 -649 0
-652 949 0
-652 649 0
653 -753 -740 0
-653 753 0
-653 740 0
654 -653 -12 0
-654 653 0
-654 12 0
655 -950 -652 0
-655 950 0
-655 652 0
656 -826 -14 0
-656 826 0
-656 14 0
657 -656 -729 0
-657 656 0
-657 729 0
658 -951 -655 0
-658 951 0
-658 655 0
659 -755 -698 0
-659 755 0
-659 698 0
660 -659 -9 0
-660 659 0
-660 9 0
661 -952 -658 0
-661 952 0
-661 658 0
662 -26 -11 0
-662 26 0
-662 11 0
663 -662 -705 0
-663 662 0
-663 705 0
664 -953 -661 0
-664 953 0
-664 661 0
665 -32 -14 0
-665 32 0
-665 14 0
666 -665 -37 0
-666 665 0
-666 37 0
667 -954 -664 0
-667 954 0
-667 664 0
668 -792 -714 0
-668 792 0
-668 714 0
669 -668 -21 0
-669 668 0
-669 21 0
670 -955 -667 0
-670 955 0
-670 667 0
671 -753 -786 0
-671 753 0
-671 786 0
672 -671 -2 0
-672 671 0
-672 2 0
673 -956 -670 0
-673 956 0
-673 670 0
674 -765 -7 0
-674 765 0
-674 7 0
675 -674 -740 0
-675 674 0
-675 740 0
676 -957 -673 0
-676 957 0
-676 673 0
677 -802 -16 0
-677 802 0
-677 16 0
678 -677 -2 0
-678 677 0
-678 2 0
679 -958 -676 0
-679 958 0
-679 676 0
680 -20 -1 0
-680 20 0
-680 1 0
681 -680 -2 0
-681 680 0
-681 2 0
682 -959 -679 0
-682 959 0
-682 679 0
683 -781 -698 0
-683 781 0
-683 698 0
684 -683 -6 0
-684 683 0
-684 6 0
685 -960 -682 0
-685 960 0
-685 682 0
686 -40 -701 0
-686 40 0
-686 701 0
687 -686 -24 0
-687 686 0
-687 24 0
688 -961 -685 0
-688 961 0
-688 685 0
689 -802 -4 0
-689 802 0
-689 4 0
690 -689 -39 0
-690 689 0
-690 39 0
691 -962 -688 0
-691 962 0
-691 688 0
692 -963 -763 0
-692 963 0
-692 763 0
693 -692 -22 0
-693 692 0
-693 22 0
694 -964 -691 0
-694 964 0
-694 691 0
695 -724 -765 0
-695 724 0
-695 765 0
696 -695 -10 0
-696 695 0
-696 10 0
697 -965 -694 0
-697 965 0
-697 694 0
-698 -2 0
698 2 0
-699 -1 0
699 1 0
-700 -3 0
700 3 0
-701 -6 0
701 6 0
-702 -54 0
702 54 0
-703 -52 0
703 52 0
-704 -8 0
704 8 0
-705 -9 0
705 9 0
-706 -57 0
706 57 0
-707 -11 0
707 11 0
-708 -60 0
708 60 0
-709 -15 0
709 15 0
-710 -63 0
710 63 0
-711 -13 0
711 13 0
-712 -12 0
712 12 0
-713 -66 0
713 66 0
-714 -17 0
714 17 0
-715 -18 0
715 18 0
-716 -69 0
716 69 0
-717 -72 0
717 72 0
-718 -22 0
718 22 0
-719 -75 0
719 75 0
-720 -23 0
720 23 0
-721 -24 0
721 24 0
-722 -78 0
722 78 0
-723 -81 0
723 81 0
-724 -27 0
724 27 0
-725 -84 0
725 84 0
-726 -87 0
726 87 0
-727 -90 0
727 90 0
-728 -31 0
728 31 0
-729 -30 0
729 30 0
-730 -93 0
730 93 0
-731 -33 0
731 33 0
-732 -96 0
732 96 0
-733 -99 0
733 99 0
-734 -29 0
734 29 0
-735 -102 0
735 102 0
-736 -105 0
736 105 0
-737 -36 0
737 36 0
-738 -108 0
738 108 0
-739 -14 0
739 14 0
-740 -37 0
740 37 0
-741 -111 0
741 111 0
-742 -19 0
742 19 0
-743 -39 0
743 39 0
-744 -114 0
744 114 0
-745 -40 0
745 40 0
-746 -21 0
746 21 0
-747 -117 0
747 117 0
-748 -120 0
748 120 0
-749 -10 0
749 10 0
-750 -123 0
750 123 0
-751 -126 0
751 126 0
-752 -129 0
752 129 0
-753 -41 0
753 41 0
-754 -132 0
754 132 0
-755 -42 0
755 42 0
-756 -135 0
756 135 0
-757 -28 0
757 28 0
-758 -138 0
758 138 0
-759 -141 0
759 141 0
-760 -144 0
760 144 0
-761 -147 0
761 147 0
-762 -44 0
762 44 0
-763 -5 0
763 5 0
-764 -150 0
764 150 0
-765 -16 0
765 16 0
-766 -153 0
766 153 0
-767 -156 0
767 156 0
-768 -4 0
768 4 0
-769 -159 0
769 159 0
-770 -162 0
770 162 0
-771 -165 0
771 165 0
-772 -45 0
772 45 0
-773 -168 0
773 168 0
-774 -46 0
774 46 0
-775 -171 0
775 171 0
-776 -174 0
776 174 0
-777 -35 0
777 35 0
-778 -177 0
778 177 0
-779 -180 0
779 180 0
-780 -183 0
780 183 0
-781 -7 0
781 7 0
-782 -186 0
782 186 0
-783 -189 0
783 189 0
-784 -49 0
784 49 0
-785 -192 0
785 192 0
-786 -26 0
786 26 0
-787 -195 0
787 195 0
-788 -198 0
788 198 0
-789 -201 0
789 201 0
-790 -204 0
790 204 0
-791 -207 0
791 207 0
-792 -38 0
792 38 0
-793 -210 0
793 210 0
-794 -213 0
794 213 0
-795 -216 0
795 216 0
-796 -219 0
796 219 0
-797 -222 0
797 222 0
-798 -225 0
798 225 0
-799 -228 0
799 228 0
-800 -231 0
800 231 0
-801 -233 0
801 233 0
-802 -32 0
802 32 0
-803 -236 0
803 236 0
-804 -239 0
804 239 0
-805 -242 0
805 242 0
-806 -245 0
806 245 0
-807 -48 0
807 48 0
-808 -248 0
808 248 0
-809 -47 0
809 47 0
-810 -251 0
810 251 0
-811 -254 0
811 254 0
-812 -257 0
812 257 0
-813 -260 0
813 260 0
-814 -263 0
814 263 0
-815 -266 0
815 266 0
-816 -269 0
816 269 0
-817 -272 0
817 272 0
-818 -275 0
818 275 0
-819 -278 0
819 278 0
-820 -281 0
820 281 0
-821 -284 0
821 284 0
-822 -287 0
822 287 0
-823 -34 0
823 34 0
-824 -290 0
824 290 0
-825 -293 0
825 293 0
-826 -43 0
826 43 0
-827 -296 0
827 296 0
-828 -299 0
828 299 0
-829 -302 0
829 302 0
-830 -305 0
830 305 0
-831 -308 0
831 308 0
-832 -311 0
832 311 0
-833 -314 0
833 314 0
-834 -317 0
834 317 0
-835 -320 0
835 320 0
-836 -323 0
836 323 0
-837 -326 0
837 326 0
-838 -329 0
838 329 0
-839 -332 0
839 332 0
-840 -335 0
840 335 0
-841 -338 0
841 338 0
-842 -341 0
842 341 0
-843 -344 0
843 344 0
-844 -347 0
844 347 0
-845 -350 0
845 350 0
-846 -353 0
846 353 0
-847 -356 0
847 356 0
-848 -20 0
848 20 0
-849 -359 0
849 359 0
-850 -362 0
850 362 0
-851 -365 0
851 365 0
-852 -368 0
852 368 0
-853 -371 0
853 371 0
-854 -374 0
854 374 0
-855 -377 0
855 377 0
-856 -380 0
856 380 0
-857 -383 0
857 383 0
-858 -386 0
858 386 0
-859 -25 0
859 25 0
-860 -389 0
860 389 0
-861 -392 0
861 392 0
-862 -395 0
862 395 0
-863 -398 0
863 398 0
-864 -401 0
864 401 0
-865 -404 0
865 404 0
-866 -407 0
866 407 0
-867 -410 0
867 410 0
-868 -413 0
868 413 0
-869 -416 0
869 416 0
-870 -419 0
870 419 0
-871 -421 0
871 421 0
-872 -424 0
872 424 0
-873 -427 0
873 427 0
-874 -430 0
874 430 0
-875 -433 0
875 433 0
-876 -436 0
876 436 0
-877 -439 0
877 439 0
-878 -442 0
878 442 0
-879 -445 0
879 445 0
-880 -448 0
880 448 0
-881 -451 0
881 451 0
-882 -454 0
882 454 0
-883 -457 0
883 457 0
-884 -460 0
884 460 0
-885 -463 0
885 463 0
-886 -466 0
886 466 0
-887 -469 0
887 469 0
-888 -472 0
888 472 0
-889 -475 0
889 475 0
-890 -477 0
890 477 0
-891 -480 0
891 480 0
-892 -483 0
892 483 0
-893 -486 0
893 486 0
-894 -489 0
894 489 0
-895 -492 0
895 492 0
-896 -495 0
896 495 0
-897 -497 0
897 497 0
-898 -499 0
898 499 0
-899 -502 0
899 502 0
-900 -505 0
900 505 0
-901 -508 0
901 508 0
-902 -511 0
902 511 0
-903 -514 0
903 514 0
-904 -517 0
904 517 0
-905 -520 0
905 520 0
-906 -523 0
906 523 0
-907 -526 0
907 526 0
-908 -529 0
908 529 0
-909 -532 0
909 532 0
-910 -535 0
910 535 0
-911 -538 0
911 538 0
-912 -541 0
912 541 0
-913 -544 0
913 544 0
-914 -547 0
914 547 0
-915 -550 0
915 550 0
-916 -553 0
916 553 0
-917 -556 0
917 556 0
-918 -559 0
918 559 0
-919 -562 0
919 562 0
-920 -565 0
920 565 0
-921 -568 0
921 568 0
-922 -571 0
922 571 0
-923 -574 0
923 574 0
-924 -577 0
924 577 0
-925 -580 0
925 580 0
-926 -583 0
926 583 0
-927 -586 0
927 586 0
-928 -589 0
928 589 0
-929 -592 0
929 592 0
-930 -595 0
930 595 0
-931 -598 0
931 598 0
-932 -601 0
932 601 0
-933 -604 0
933 604 0
-934 -607 0
934 607 0
-935 -610 0
935 610 0
-936 -613 0
936 613 0
-937 -616 0
937 616 0
-938 -619 0
938 619 0
-939 -622 0
939 622 0
-940 -625 0
940 625 0
-941 -628 0
941 628 0
-942 -631 0
942 631 0
-943 -634 0
943 634 0
-944 -637 0
944 637 0
-945 -640 0
945 640 0
-946 -642 0
946 642 0
-947 -645 0
947 645 0
-948 -648 0
948 648 0
-949 -651 0
949 651 0
-950 -654 0
950 654 0
-951 -657 0
951 657 0
-952 -660 0
952 660 0
-953 -663 0
953 663 0
-954 -666 0
954 666 0
-955 -669 0
955 669 0
-956 -672 0
956 672 0
-957 -675 0
957 675 0
-958 -678 0
958 678 0
-959 -681 0
959 681 0
-960 -684 0
960 684 0
-961 -687 0
961 687 0
-962 -690 0
962 690 0
-963 -50 0
963 50 0
-964 -693 0
964 693 0
-965 -696 0
965 696 0
697 0
